c A SAT instance generated from a 3-CNF formula that had 21 clauses and 7 variables
p cnf 7 21
5 4 2 0
3 5 -1 0
1 7 4 0
7 4 2 0
5 -7 1 0
3 -2 -7 0
-5 2 7 0
-1 4 5 0
-7 -2 5 0
-7 -2 -5 0
2 -1 7 0
-3 7 -4 0
4 -2 -7 0
1 -6 4 0
7 -6 -3 0
-7 5 3 0
3 -6 4 0
-2 6 -3 0
4 1 6 0
-2 5 -1 0
5 3 1 0
